<number of tasks>
50

<cycle time>
1000

<order strength>
0.198


<task times>
1 150
2 182
3 86
4 136
5 21
6 99
7 41
8 159
9 26
10 120
11 106
12 181
13 155
14 43
15 190
16 45
17 91
18 41
19 112
20 27
21 131
22 288
23 63
24 49
25 204
26 57
27 324
28 123
29 102
30 235
31 243
32 233
33 160
34 112
35 92
36 172
37 44
38 159
39 177
40 59
41 78
42 136
43 136
44 157
45 84
46 93
47 26
48 35
49 121
50 26

<precedence relations>
1,11
1,14
2,23
3,10
4,8
5,9
6,7
6,12
6,13
7,15
7,18
7,21
7,23
8,24
9,19
9,20
11,17
11,22
12,23
14,16
17,28
17,38
18,24
18,26
19,27
19,29
23,25
23,41
24,31
24,32
26,32
29,30
29,44
30,34
31,33
31,35
31,36
32,33
32,37
33,41
33,45
34,38
34,45
36,40
36,44
37,39
37,42
37,43
38,46
39,49
40,50
41,47
42,47
42,48

<end>
